unsat
((set-logic NIA)
(declare-fun a!4 () Int)
(declare-fun s!0 () Int)
(declare-fun b!2 () Int)
(declare-fun r!1 () Int)
(declare-fun q!3 () Int)
(declare-fun p!5 () Int)
(proof
(let ((?x661 (* r!1 b!2)))
 (let ((?x122 (* s00 a00)))
 (let ((?x734 (+ ?x122 (* (- 1) (* r00 b00)) ?x661 (* (- 1) (* s!0 a!4)))))
 (let (($x533 (<= ?x734 0)))
 (let (($x735 (= ?x734 0)))
 (let ((?x620 (* (- 1) q!3)))
 (let ((?x110 (+ ?x620 p!5)))
 (let ((?x623 (+ a!4 (* (- 1) b!2))))
 (let ((?x625 (* (- 1) s!0)))
 (let ((?x503 (+ ?x625 r!1)))
 (let ((?x301 (* ?x503 ?x503 ?x623 ?x623 ?x623 ?x110 ?x110 ?x110 (+ (* (- 1) ?x122) (* r00 b00) (* (- 1) ?x661) (* s!0 a!4)) b!2 q!3 q!3)))
 (let (($x284 (= ?x301 0)))
 (let ((?x685 (* q!3 q!3 s!0 a!4 a!4 a!4 a!4 p!5 p!5 p!5 r!1 r!1 b!2)))
 (let ((?x684 (* q!3 q!3 a!4 a!4 a!4 p!5 p!5 p!5 r!1 r!1 r!1 b!2 b!2)))
 (let ((?x681 (* s00 a00 q!3 q!3 a!4 a!4 a!4 p!5 p!5 p!5 r!1 r!1 b!2)))
 (let ((?x640 (* s!0 a!4 a!4 a!4 a!4 p!5 p!5 p!5 p!5 p!5 r!1 r!1 b!2)))
 (let ((?x637 (* s00 a00 a!4 a!4 a!4 a!4 p!5 p!5 p!5 p!5 p!5 r!1 r!1)))
 (let ((?x633 (* q!3 s!0 a!4 a!4 a!4 a!4 p!5 p!5 p!5 p!5 r!1 r!1 b!2)))
 (let ((?x631 (* r00 b00 q!3 a!4 a!4 a!4 p!5 p!5 p!5 p!5 r!1 r!1 b!2)))
 (let ((?x456 (* s00 a00 q!3 a!4 a!4 a!4 p!5 p!5 p!5 p!5 r!1 r!1 b!2)))
 (let ((?x446 (* r00 b00 a!4 a!4 a!4 p!5 p!5 p!5 p!5 p!5 r!1 r!1 b!2)))
 (let ((?x445 (* q!3 s!0 a!4 a!4 a!4 a!4 a!4 p!5 p!5 p!5 p!5 r!1 r!1)))
 (let ((?x436 (* q!3 a!4 a!4 a!4 a!4 p!5 p!5 p!5 p!5 r!1 r!1 r!1 b!2)))
 (let ((?x432 (* s00 a00 q!3 a!4 a!4 a!4 a!4 p!5 p!5 p!5 p!5 r!1 r!1)))
 (let ((?x373 (* r00 b00 q!3 q!3 a!4 a!4 a!4 p!5 p!5 p!5 r!1 r!1 b!2)))
 (let ((?x313 (* r00 b00 q!3 q!3 a!4 a!4 a!4 a!4 p!5 p!5 p!5 r!1 r!1)))
 (let ((?x305 (* s00 a00 q!3 q!3 a!4 a!4 a!4 a!4 p!5 p!5 p!5 r!1 r!1)))
 (let ((?x297 (* q!3 q!3 a!4 a!4 a!4 a!4 p!5 p!5 p!5 r!1 r!1 r!1 b!2)))
 (let ((?x289 (* s!0 a!4 a!4 a!4 a!4 a!4 p!5 p!5 p!5 p!5 p!5 r!1 r!1)))
 (let ((?x285 (* s00 a00 a!4 a!4 a!4 p!5 p!5 p!5 p!5 p!5 r!1 r!1 b!2)))
 (let ((?x270 (* r00 b00 a!4 a!4 a!4 a!4 p!5 p!5 p!5 p!5 p!5 r!1 r!1)))
 (let ((?x269 (* a!4 a!4 a!4 a!4 p!5 p!5 p!5 p!5 p!5 r!1 r!1 r!1 b!2)))
 (let ((?x259 (* q!3 a!4 a!4 a!4 p!5 p!5 p!5 p!5 r!1 r!1 r!1 b!2 b!2)))
 (let ((?x253 (* a!4 a!4 a!4 p!5 p!5 p!5 p!5 p!5 r!1 r!1 r!1 b!2 b!2)))
 (let ((?x200 (* r00 b00 q!3 a!4 a!4 a!4 a!4 p!5 p!5 p!5 p!5 r!1 r!1)))
 (let ((?x154 (* q!3 q!3 s!0 a!4 a!4 a!4 a!4 a!4 p!5 p!5 p!5 r!1 r!1)))
 (let ((?x697 (+ ?x154 (* (- 2) ?x200) ?x253 (* (- 2) ?x259) (* (- 1) ?x269) ?x270 ?x285 ?x289 (* (- 1) ?x297) (* (- 1) ?x305) ?x313 (* (- 1) ?x373) (* 2 ?x432) (* 2 ?x436) (* (- 2) ?x445) (* (- 1) ?x446) (* (- 2) ?x456) (* 2 ?x631) (* 2 ?x633) (* (- 1) ?x637) (* (- 1) ?x640) ?x681 ?x684 (* (- 1) ?x685))))
 (let (($x545 (= ?x697 0)))
 (let (($x256 (not $x545)))
 (let (($x370 (or $x256 (not $x284))))
 (let ((?x123 (+ (* p00 s00 b!2) (* (- 1) (* p00 b00 s!0)) (* (- 1) (* q00 r00 b!2)) (* r00 b00 q!3) (* (- 1) (* s00 a00 q!3)) (* q00 a00 s!0))))
 (let ((?x809 (+ (* q00 r00 a!4) (* (- 1) (* p00 s00 a!4)) (* (- 1) (* r00 b00 p!5)) (* p00 b00 r!1) (* s00 a00 p!5) (* (- 1) (* q00 a00 r!1)))))
 (let ((?x308 (* p!5 b!2)))
 (let ((?x128 (* q00 a00)))
 (let (($x762 (= (+ ?x128 (* (- 1) (* p00 b00)) ?x308 (* (- 1) (* q!3 a!4))) 0)))
 (let ((?x581 (* q!3 r!1)))
 (let ((?x41 (* q00 r00)))
 (let ((?x832 (* (- 1) ?x41)))
 (let ((?x37 (* p00 s00)))
 (let (($x699 (and (= (+ ?x37 ?x832 ?x581 (* (- 1) (* s!0 p!5))) 0) $x735 $x762 (= ?x809 0) (= ?x123 0) $x370)))
 (let ((?x140 (* r00 b00)))
 (let ((?x129 (* (- 1) ?x122)))
 (let ((?x483 (+ (* a!4 s!0) (* (- 1) (* b!2 r!1)) ?x129 ?x140)))
 (let ((?x618 (+ p!5 ?x620)))
 (let ((?x624 (+ r!1 ?x625)))
 (let (($x622 (= (* ?x624 ?x624 ?x623 ?x623 ?x623 ?x618 ?x618 ?x618 ?x483 b!2 q!3 q!3) 0)))
 (let ((?x575 (* p!5 p!5 p!5 a!4 a!4 a!4 q!3 q!3 b!2 r!1 r!1 r00 b00)))
 (let ((?x571 (* p!5 p!5 p!5 a!4 a!4 a!4 q!3 q!3 b!2 r!1 r!1 s00 a00)))
 (let ((?x437 (* p!5 p!5 p!5 a!4 a!4 a!4 q!3 q!3 b!2 b!2 r!1 r!1 r!1)))
 (let ((?x286 (* p!5 p!5 p!5 a!4 a!4 a!4 a!4 q!3 q!3 b!2 r!1 r!1 s!0)))
 (let ((?x558 (* p!5 p!5 p!5 a!4 a!4 a!4 a!4 q!3 q!3 r!1 r!1 r00 b00)))
 (let ((?x537 (* p!5 p!5 p!5 a!4 a!4 a!4 a!4 q!3 q!3 r!1 r!1 s00 a00)))
 (let ((?x516 (* p!5 p!5 p!5 a!4 a!4 a!4 a!4 q!3 q!3 b!2 r!1 r!1 r!1)))
 (let ((?x304 (* p!5 p!5 p!5 a!4 a!4 a!4 a!4 a!4 q!3 q!3 r!1 r!1 s!0)))
 (let ((?x760 (* p!5 p!5 p!5 p!5 a!4 a!4 a!4 q!3 b!2 r!1 r!1 r00 b00)))
 (let ((?x756 (* p!5 p!5 p!5 p!5 a!4 a!4 a!4 q!3 b!2 r!1 r!1 s00 a00)))
 (let ((?x752 (* p!5 p!5 p!5 p!5 a!4 a!4 a!4 q!3 b!2 b!2 r!1 r!1 r!1)))
 (let ((?x365 (* p!5 p!5 p!5 p!5 a!4 a!4 a!4 a!4 q!3 b!2 r!1 r!1 s!0)))
 (let ((?x514 (* p!5 p!5 p!5 p!5 a!4 a!4 a!4 a!4 q!3 r!1 r!1 r00 b00)))
 (let ((?x717 (* p!5 p!5 p!5 p!5 a!4 a!4 a!4 a!4 q!3 r!1 r!1 s00 a00)))
 (let ((?x368 (* p!5 p!5 p!5 p!5 a!4 a!4 a!4 a!4 q!3 b!2 r!1 r!1 r!1)))
 (let ((?x598 (* p!5 p!5 p!5 p!5 a!4 a!4 a!4 a!4 a!4 q!3 r!1 r!1 s!0)))
 (let ((?x292 (* p!5 p!5 p!5 p!5 p!5 a!4 a!4 a!4 b!2 r!1 r!1 r00 b00)))
 (let ((?x434 (* p!5 p!5 p!5 p!5 p!5 a!4 a!4 a!4 b!2 r!1 r!1 s00 a00)))
 (let ((?x435 (* p!5 p!5 p!5 p!5 p!5 a!4 a!4 a!4 b!2 b!2 r!1 r!1 r!1)))
 (let ((?x792 (* p!5 p!5 p!5 p!5 p!5 a!4 a!4 a!4 a!4 b!2 r!1 r!1 s!0)))
 (let ((?x339 (* p!5 p!5 p!5 p!5 p!5 a!4 a!4 a!4 a!4 r!1 r!1 r00 b00)))
 (let ((?x429 (* p!5 p!5 p!5 p!5 p!5 a!4 a!4 a!4 a!4 r!1 r!1 s00 a00)))
 (let ((?x279 (* p!5 p!5 p!5 p!5 p!5 a!4 a!4 a!4 a!4 b!2 r!1 r!1 r!1)))
 (let ((?x411 (* p!5 p!5 p!5 p!5 p!5 a!4 a!4 a!4 a!4 a!4 r!1 r!1 s!0)))
 (let ((?x202 (+ ?x411 (* (- 1) ?x279) (* (- 1) ?x429) ?x339 (* (- 1) ?x792) ?x435 ?x434 (* (- 1) ?x292) (* (- 2) ?x598) (* 2 ?x368) (* 2 ?x717) (* (- 2) ?x514) (* 2 ?x365) (* (- 2) ?x752) (* (- 2) ?x756) (* 2 ?x760) ?x304 (* (- 1) ?x516) (* (- 1) ?x537) ?x558 (* (- 1) ?x286) ?x437 ?x571 (* (- 1) ?x575))))
 (let ((?x415 (+ (* b!2 q00 r00) (* (- 1) (* b!2 p00 s00)) (* s!0 p00 b00) (* (- 1) (* q!3 r00 b00)) (* q!3 s00 a00) (* (- 1) (* s!0 q00 a00)))))
 (let ((?x191 (+ (* a!4 p00 s00) (* (- 1) (* a!4 q00 r00)) (* p!5 r00 b00) (* (- 1) (* r!1 p00 b00)) (* (- 1) (* p!5 s00 a00)) (* r!1 q00 a00))))
 (let (($x391 (= (+ (* a!4 q!3) (* (- 1) ?x128) (* p00 b00) (* (- 1) ?x308)) 0)))
 (let (($x617 (and (= (+ (* p!5 s!0) (* (- 1) ?x37) ?x41 (* (- 1) ?x581)) 0) (= ?x483 0) $x391 (= ?x191 0) (= ?x415 0) (or (not (= ?x202 0)) (not $x622)))))
 (let (($x388 (exists ((p Int) (a Int) (q Int) (b Int) (r Int) (s Int) )(! (let ((?x140 (* r00 b00)))
 (let ((?x122 (* s00 a00)))
 (let ((?x129 (* (- 1) ?x122)))
 (let ((?x117 (* (- 1) (* b r))))
 (let ((?x49 (* a s)))
 (let ((?x147 (+ ?x49 ?x117 ?x129 ?x140)))
 (let ((?x328 (+ p (* (- 1) q))))
 (let ((?x291 (+ a (* (- 1) b))))
 (let ((?x252 (* (- 1) s)))
 (let ((?x254 (+ r ?x252)))
 (let (($x543 (= (* ?x254 ?x254 ?x291 ?x291 ?x291 ?x328 ?x328 ?x328 ?x147 b q q) 0)))
 (let ((?x807 (* p p p a a a q q b r r r00 b00)))
 (let ((?x803 (* p p p a a a q q b r r s00 a00)))
 (let ((?x799 (* p p p a a a q q b b r r r)))
 (let ((?x796 (* p p p a a a a q q b r r s)))
 (let ((?x774 (* p p p a a a a q q r r r00 b00)))
 (let ((?x765 (* p p p a a a a q q r r s00 a00)))
 (let ((?x757 (* p p p a a a a q q b r r r)))
 (let ((?x748 (* p p p a a a a a q q r r s)))
 (let ((?x636 (* p p p p a a a q b r r r00 b00)))
 (let ((?x627 (* p p p p a a a q b r r s00 a00)))
 (let ((?x619 (* p p p p a a a q b b r r r)))
 (let ((?x610 (* p p p p a a a a q b r r s)))
 (let ((?x585 (* p p p p a a a a q r r r00 b00)))
 (let ((?x576 (* p p p p a a a a q r r s00 a00)))
 (let ((?x566 (* p p p p a a a a q b r r r)))
 (let ((?x557 (* p p p p a a a a a q r r s)))
 (let ((?x534 (* p p p p p a a a b r r r00 b00)))
 (let ((?x525 (* p p p p p a a a b r r s00 a00)))
 (let ((?x515 (* p p p p p a a a b b r r r)))
 (let ((?x506 (* p p p p p a a a a b r r s)))
 (let ((?x481 (* p p p p p a a a a r r r00 b00)))
 (let ((?x472 (* p p p p p a a a a r r s00 a00)))
 (let ((?x464 (* p p p p p a a a a b r r r)))
 (let ((?x345 (* p p p p p a a a a a r r s)))
 (let ((?x910 (+ ?x345 (* (- 1) ?x464) (* (- 1) ?x472) ?x481 (* (- 1) ?x506) ?x515 ?x525 (* (- 1) ?x534) (* (- 2) ?x557) (* 2 ?x566) (* 2 ?x576) (* (- 2) ?x585) (* 2 ?x610) (* (- 2) ?x619) (* (- 2) ?x627) (* 2 ?x636) ?x748 (* (- 1) ?x757) (* (- 1) ?x765) ?x774 (* (- 1) ?x796) ?x799 ?x803 (* (- 1) ?x807))))
 (let (($x274 (not (= ?x910 0))))
 (let ((?x72 (* b q00 r00)))
 (let ((?x306 (+ ?x72 (* (- 1) (* b p00 s00)) (* s p00 b00) (* (- 1) (* q r00 b00)) (* q s00 a00) (* (- 1) (* s q00 a00)))))
 (let (($x311 (= ?x306 0)))
 (let ((?x63 (* a p00 s00)))
 (let ((?x242 (+ ?x63 (* (- 1) (* a q00 r00)) (* p r00 b00) (* (- 1) (* r p00 b00)) (* (- 1) (* p s00 a00)) (* r q00 a00))))
 (let (($x243 (= ?x242 0)))
 (let ((?x133 (* p00 b00)))
 (let ((?x128 (* q00 a00)))
 (let ((?x174 (* (- 1) ?x128)))
 (let (($x177 (= (+ (* a q) ?x174 ?x133 (* (- 1) (* p b))) 0)))
 (let (($x155 (= ?x147 0)))
 (let ((?x41 (* q00 r00)))
 (let ((?x37 (* p00 s00)))
 (let ((?x131 (* (- 1) ?x37)))
 (let ((?x33 (* p s)))
 (let (($x150 (= (+ ?x33 ?x131 ?x41 (* (- 1) (* q r))) 0)))
 (and $x150 $x155 $x177 $x243 $x311 (or $x274 (not $x543)))))))))))))))))))))))))))))))))))))))))))))))))))))))) :qid k!39))
 ))
 (let (($x854 (exists ((p Int) (a Int) (q Int) (b Int) (r Int) (s Int) )(! (let ((?x51 (* b00 r00)))
 (let ((?x47 (* a00 s00)))
 (let ((?x858 (* (- 1) ?x47)))
 (let ((?x519 (+ (* (- 1) (* (+ b (* (- 1) a)) r)) ?x858 (* (+ s (* (- 1) r)) a) ?x51)))
 (let ((?x529 (+ q (* (- 1) p))))
 (let ((?x616 (+ b (* (- 1) a))))
 (let (($x546 (= (* ?x616 ?x529 ?x529 ?x519 r r a a a p p p) 0)))
 (let ((?x482 (+ (* (- 1) (* (+ r (* (- 1) s)) b)) ?x858 (* (+ a (* (- 1) b)) s) ?x51)))
 (let ((?x328 (+ p (* (- 1) q))))
 (let ((?x291 (+ a (* (- 1) b))))
 (let ((?x252 (* (- 1) s)))
 (let ((?x254 (+ r ?x252)))
 (let (($x513 (= (* ?x254 ?x254 ?x291 ?x291 ?x291 ?x328 ?x328 ?x328 ?x482 b q q) 0)))
 (let (($x335 (or (not $x513) (not $x546))))
 (let ((?x73 (* b00 p00 s)))
 (let ((?x440 (+ (* q00 r00 b) ?x73 (* (- 1) (* b00 r00 q)) (* (- 1) (* p00 s00 b)) (* a00 s00 q) (* (- 1) (* a00 q00 s)))))
 (let (($x499 (= ?x440 0)))
 (let ((?x69 (* a00 q00 r)))
 (let ((?x317 (* p00 s00 a)))
 (let ((?x830 (* b00 r00 p)))
 (let ((?x606 (+ ?x830 ?x317 (* (- 1) (* b00 p00 r)) (* (- 1) (* q00 r00 a)) (* (- 1) (* a00 s00 p)) ?x69)))
 (let ((?x57 (* b00 p00)))
 (let ((?x850 (* q a)))
 (let (($x831 (= (+ ?x850 (* (- 1) (* a00 q00)) ?x57 (* (- 1) (* b p))) 0)))
 (let (($x478 (= (+ (* r b) ?x47 (* (- 1) (* s a)) (* (- 1) ?x51)) 0)))
 (let ((?x41 (* q00 r00)))
 (let ((?x832 (* (- 1) ?x41)))
 (let ((?x37 (* p00 s00)))
 (let ((?x528 (* r q)))
 (and (= (+ ?x528 (* (- 1) (* s p)) ?x37 ?x832) 0) $x478 $x831 (= ?x606 0) $x499 $x335)))))))))))))))))))))))))))))) :qid k!39))
 ))
 (let ((?x556 (lambda ((p Int) (a Int) (q Int) (b Int) (r Int) (s Int) )(let ((?x140 (* r00 b00)))
 (let ((?x122 (* s00 a00)))
 (let ((?x129 (* (- 1) ?x122)))
 (let ((?x117 (* (- 1) (* b r))))
 (let ((?x49 (* a s)))
 (let ((?x147 (+ ?x49 ?x117 ?x129 ?x140)))
 (let ((?x328 (+ p (* (- 1) q))))
 (let ((?x291 (+ a (* (- 1) b))))
 (let ((?x252 (* (- 1) s)))
 (let ((?x254 (+ r ?x252)))
 (let (($x543 (= (* ?x254 ?x254 ?x291 ?x291 ?x291 ?x328 ?x328 ?x328 ?x147 b q q) 0)))
 (let ((?x807 (* p p p a a a q q b r r r00 b00)))
 (let ((?x803 (* p p p a a a q q b r r s00 a00)))
 (let ((?x799 (* p p p a a a q q b b r r r)))
 (let ((?x796 (* p p p a a a a q q b r r s)))
 (let ((?x774 (* p p p a a a a q q r r r00 b00)))
 (let ((?x765 (* p p p a a a a q q r r s00 a00)))
 (let ((?x757 (* p p p a a a a q q b r r r)))
 (let ((?x748 (* p p p a a a a a q q r r s)))
 (let ((?x636 (* p p p p a a a q b r r r00 b00)))
 (let ((?x627 (* p p p p a a a q b r r s00 a00)))
 (let ((?x619 (* p p p p a a a q b b r r r)))
 (let ((?x610 (* p p p p a a a a q b r r s)))
 (let ((?x585 (* p p p p a a a a q r r r00 b00)))
 (let ((?x576 (* p p p p a a a a q r r s00 a00)))
 (let ((?x566 (* p p p p a a a a q b r r r)))
 (let ((?x557 (* p p p p a a a a a q r r s)))
 (let ((?x534 (* p p p p p a a a b r r r00 b00)))
 (let ((?x525 (* p p p p p a a a b r r s00 a00)))
 (let ((?x515 (* p p p p p a a a b b r r r)))
 (let ((?x506 (* p p p p p a a a a b r r s)))
 (let ((?x481 (* p p p p p a a a a r r r00 b00)))
 (let ((?x472 (* p p p p p a a a a r r s00 a00)))
 (let ((?x464 (* p p p p p a a a a b r r r)))
 (let ((?x345 (* p p p p p a a a a a r r s)))
 (let ((?x910 (+ ?x345 (* (- 1) ?x464) (* (- 1) ?x472) ?x481 (* (- 1) ?x506) ?x515 ?x525 (* (- 1) ?x534) (* (- 2) ?x557) (* 2 ?x566) (* 2 ?x576) (* (- 2) ?x585) (* 2 ?x610) (* (- 2) ?x619) (* (- 2) ?x627) (* 2 ?x636) ?x748 (* (- 1) ?x757) (* (- 1) ?x765) ?x774 (* (- 1) ?x796) ?x799 ?x803 (* (- 1) ?x807))))
 (let (($x274 (not (= ?x910 0))))
 (let ((?x72 (* b q00 r00)))
 (let ((?x306 (+ ?x72 (* (- 1) (* b p00 s00)) (* s p00 b00) (* (- 1) (* q r00 b00)) (* q s00 a00) (* (- 1) (* s q00 a00)))))
 (let (($x311 (= ?x306 0)))
 (let ((?x63 (* a p00 s00)))
 (let ((?x242 (+ ?x63 (* (- 1) (* a q00 r00)) (* p r00 b00) (* (- 1) (* r p00 b00)) (* (- 1) (* p s00 a00)) (* r q00 a00))))
 (let (($x243 (= ?x242 0)))
 (let ((?x133 (* p00 b00)))
 (let ((?x128 (* q00 a00)))
 (let ((?x174 (* (- 1) ?x128)))
 (let (($x177 (= (+ (* a q) ?x174 ?x133 (* (- 1) (* p b))) 0)))
 (let (($x155 (= ?x147 0)))
 (let ((?x41 (* q00 r00)))
 (let ((?x37 (* p00 s00)))
 (let ((?x131 (* (- 1) ?x37)))
 (let ((?x33 (* p s)))
 (let (($x150 (= (+ ?x33 ?x131 ?x41 (* (- 1) (* q r))) 0)))
 (let (($x707 (and $x150 $x155 $x177 $x243 $x311 (or $x274 (not $x543)))))
 (let ((?x51 (* b00 r00)))
 (let ((?x47 (* a00 s00)))
 (let ((?x858 (* (- 1) ?x47)))
 (let ((?x519 (+ (* (- 1) (* (+ b (* (- 1) a)) r)) ?x858 (* (+ s (* (- 1) r)) a) ?x51)))
 (let ((?x529 (+ q (* (- 1) p))))
 (let ((?x616 (+ b (* (- 1) a))))
 (let (($x546 (= (* ?x616 ?x529 ?x529 ?x519 r r a a a p p p) 0)))
 (let ((?x504 (* ?x254 ?x254 ?x291 ?x291 ?x291 ?x328 ?x328 ?x328 (+ (* (- 1) (* ?x254 b)) ?x858 (* ?x291 s) ?x51) b q q)))
 (let (($x335 (or (not (= ?x504 0)) (not $x546))))
 (let ((?x73 (* b00 p00 s)))
 (let ((?x440 (+ (* q00 r00 b) ?x73 (* (- 1) (* b00 r00 q)) (* (- 1) (* p00 s00 b)) (* a00 s00 q) (* (- 1) (* a00 q00 s)))))
 (let (($x499 (= ?x440 0)))
 (let ((?x69 (* a00 q00 r)))
 (let ((?x317 (* p00 s00 a)))
 (let ((?x830 (* b00 r00 p)))
 (let ((?x606 (+ ?x830 ?x317 (* (- 1) (* b00 p00 r)) (* (- 1) (* q00 r00 a)) (* (- 1) (* a00 s00 p)) ?x69)))
 (let ((?x57 (* b00 p00)))
 (let ((?x850 (* q a)))
 (let (($x831 (= (+ ?x850 (* (- 1) (* a00 q00)) ?x57 (* (- 1) (* b p))) 0)))
 (let (($x478 (= (+ (* r b) ?x47 (* (- 1) (* s a)) (* (- 1) ?x51)) 0)))
 (let (($x463 (= (+ (* r q) (* (- 1) (* s p)) ?x37 (* (- 1) ?x41)) 0)))
 (let (($x298 (and $x463 $x478 $x831 (= ?x606 0) $x499 $x335)))
 (rewrite (= $x298 $x707)))))))))))))))))))))))))))))))))))))))))))))))))))))))))))))))))))))))))))))))
 ))
 (let (($x652 (exists ((p Int) (a Int) (q Int) (b Int) (r Int) (s Int) )(! (let ((?x51 (* b00 r00)))
 (let ((?x47 (* a00 s00)))
 (let ((?x858 (* (- 1) ?x47)))
 (let ((?x519 (+ (* (- 1) (* (+ b (* (- 1) a)) r)) ?x858 (* (+ s (* (- 1) r)) a) ?x51)))
 (let ((?x529 (+ q (* (- 1) p))))
 (let ((?x616 (+ b (* (- 1) a))))
 (let (($x546 (= (* ?x616 ?x529 ?x529 ?x519 r r a a a p p p) 0)))
 (let ((?x482 (+ (* (- 1) (* (+ r (* (- 1) s)) b)) ?x858 (* (+ a (* (- 1) b)) s) ?x51)))
 (let ((?x328 (+ p (* (- 1) q))))
 (let ((?x291 (+ a (* (- 1) b))))
 (let ((?x252 (* (- 1) s)))
 (let ((?x254 (+ r ?x252)))
 (let (($x513 (= (* ?x254 ?x254 ?x291 ?x291 ?x291 ?x328 ?x328 ?x328 ?x482 b q q) 0)))
 (let (($x335 (or (not $x513) (not $x546))))
 (let ((?x73 (* b00 p00 s)))
 (let ((?x440 (+ (* q00 r00 b) ?x73 (* (- 1) (* b00 r00 q)) (* (- 1) (* p00 s00 b)) (* a00 s00 q) (* (- 1) (* a00 q00 s)))))
 (let (($x499 (= ?x440 0)))
 (let ((?x648 (* a00 s00 p)))
 (let ((?x641 (* q00 r00 a)))
 (let ((?x65 (* b00 p00 r)))
 (let ((?x399 (+ (* (- 1) (* b00 r00 p)) (* (- 1) (* p00 s00 a)) ?x65 ?x641 ?x648 (* (- 1) (* a00 q00 r)))))
 (let ((?x59 (* b p)))
 (let ((?x55 (* a00 q00)))
 (let (($x232 (= (+ (* (- 1) (* q a)) ?x55 (* (- 1) (* b00 p00)) ?x59) 0)))
 (let ((?x41 (* q00 r00)))
 (let ((?x37 (* p00 s00)))
 (let ((?x131 (* (- 1) ?x37)))
 (let ((?x827 (* s p)))
 (and (= (+ (* (- 1) (* r q)) ?x827 ?x131 ?x41) 0) (= (+ (* (- 1) (* r b)) ?x858 (* s a) ?x51) 0) $x232 (= ?x399 0) $x499 $x335))))))))))))))))))))))))))))) :qid k!39))
 ))
 (let ((?x793 (lambda ((p Int) (a Int) (q Int) (b Int) (r Int) (s Int) )(let ((?x51 (* b00 r00)))
 (let ((?x47 (* a00 s00)))
 (let ((?x858 (* (- 1) ?x47)))
 (let ((?x519 (+ (* (- 1) (* (+ b (* (- 1) a)) r)) ?x858 (* (+ s (* (- 1) r)) a) ?x51)))
 (let ((?x529 (+ q (* (- 1) p))))
 (let ((?x616 (+ b (* (- 1) a))))
 (let (($x546 (= (* ?x616 ?x529 ?x529 ?x519 r r a a a p p p) 0)))
 (let ((?x482 (+ (* (- 1) (* (+ r (* (- 1) s)) b)) ?x858 (* (+ a (* (- 1) b)) s) ?x51)))
 (let ((?x328 (+ p (* (- 1) q))))
 (let ((?x291 (+ a (* (- 1) b))))
 (let ((?x252 (* (- 1) s)))
 (let ((?x254 (+ r ?x252)))
 (let (($x513 (= (* ?x254 ?x254 ?x291 ?x291 ?x291 ?x328 ?x328 ?x328 ?x482 b q q) 0)))
 (let (($x335 (or (not $x513) (not $x546))))
 (let ((?x73 (* b00 p00 s)))
 (let ((?x440 (+ (* q00 r00 b) ?x73 (* (- 1) (* b00 r00 q)) (* (- 1) (* p00 s00 b)) (* a00 s00 q) (* (- 1) (* a00 q00 s)))))
 (let (($x499 (= ?x440 0)))
 (let ((?x69 (* a00 q00 r)))
 (let ((?x317 (* p00 s00 a)))
 (let ((?x830 (* b00 r00 p)))
 (let ((?x606 (+ ?x830 ?x317 (* (- 1) (* b00 p00 r)) (* (- 1) (* q00 r00 a)) (* (- 1) (* a00 s00 p)) ?x69)))
 (let ((?x57 (* b00 p00)))
 (let ((?x850 (* q a)))
 (let (($x831 (= (+ ?x850 (* (- 1) (* a00 q00)) ?x57 (* (- 1) (* b p))) 0)))
 (let (($x478 (= (+ (* r b) ?x47 (* (- 1) (* s a)) (* (- 1) ?x51)) 0)))
 (let ((?x41 (* q00 r00)))
 (let ((?x832 (* (- 1) ?x41)))
 (let ((?x37 (* p00 s00)))
 (let ((?x528 (* r q)))
 (let (($x298 (and (= (+ ?x528 (* (- 1) (* s p)) ?x37 ?x832) 0) $x478 $x831 (= ?x606 0) $x499 $x335)))
 (let ((?x648 (* a00 s00 p)))
 (let ((?x641 (* q00 r00 a)))
 (let ((?x65 (* b00 p00 r)))
 (let (($x466 (= (+ (* (- 1) ?x830) (* (- 1) ?x317) ?x65 ?x641 ?x648 (* (- 1) ?x69)) 0)))
 (let (($x232 (= (+ (* (- 1) ?x850) (* a00 q00) (* (- 1) ?x57) (* b p)) 0)))
 (let (($x553 (and (= (+ (* (- 1) ?x528) (* s p) (* (- 1) ?x37) ?x41) 0) (= (+ (* (- 1) (* r b)) ?x858 (* s a) ?x51) 0) $x232 $x466 $x499 $x335)))
 (rewrite (= $x553 $x298)))))))))))))))))))))))))))))))))))))))
 ))
 (let (($x106 (exists ((p Int) (a Int) (q Int) (b Int) (r Int) (s Int) )(! (let ((?x100 (- q p)))
 (let ((?x94 (- b a)))
 (let ((?x31 (- 1)))
 (let ((?x51 (* b00 r00)))
 (let ((?x99 (+ (- (* ?x31 ?x94 r) (* a00 s00)) (* a (- s r)) ?x51)))
 (let ((?x101 (* ?x99 ?x31 a a a ?x94 p p p ?x100 ?x100 r r)))
 (let ((?x84 (- r s)))
 (let ((?x90 (- p q)))
 (let ((?x87 (- a b)))
 (let ((?x91 (* (+ (- (* ?x31 b ?x84) (* a00 s00)) (* ?x87 s) ?x51) ?x31 ?x87 ?x87 ?x87 b ?x90 ?x90 ?x90 q q ?x84 ?x84)))
 (let ((?x81 (* a00 q00 s)))
 (let ((?x76 (* b p00 s00)))
 (let ((?x77 (- (+ (* b q00 r00) (* b00 p00 s)) (* b00 q r00))))
 (let ((?x69 (* a00 q00 r)))
 (let ((?x66 (* a q00 r00)))
 (let ((?x65 (* b00 p00 r)))
 (let ((?x68 (+ (- (* ?x31 b00 p r00) (* a p00 s00)) ?x65 ?x66 (* a00 p s00))))
 (let ((?x59 (* b p)))
 (let ((?x60 (+ (- (+ (* ?x31 a q) (* a00 q00)) (* b00 p00)) ?x59)))
 (let (($x53 (= (+ (- (* ?x31 b r) (* a00 s00)) (* a s) ?x51) 0)))
 (let ((?x41 (* q00 r00)))
 (let (($x44 (= (+ (- (+ (* ?x31 q r) (* p s)) (* p00 s00)) ?x41) 0)))
 (and $x44 $x53 (= ?x60 0) (= (- ?x68 ?x69) 0) (= (- (+ (- ?x77 ?x76) (* a00 q s00)) ?x81) 0) (or (not (= ?x91 0)) (not (= ?x101 0)))))))))))))))))))))))))) :qid k!39))
 ))
 (let ((?x341 (lambda ((p Int) (a Int) (q Int) (b Int) (r Int) (s Int) )(let ((?x51 (* b00 r00)))
 (let ((?x47 (* a00 s00)))
 (let ((?x858 (* (- 1) ?x47)))
 (let ((?x519 (+ (* (- 1) (* (+ b (* (- 1) a)) r)) ?x858 (* (+ s (* (- 1) r)) a) ?x51)))
 (let ((?x529 (+ q (* (- 1) p))))
 (let ((?x616 (+ b (* (- 1) a))))
 (let (($x546 (= (* ?x616 ?x529 ?x529 ?x519 r r a a a p p p) 0)))
 (let ((?x482 (+ (* (- 1) (* (+ r (* (- 1) s)) b)) ?x858 (* (+ a (* (- 1) b)) s) ?x51)))
 (let ((?x328 (+ p (* (- 1) q))))
 (let ((?x291 (+ a (* (- 1) b))))
 (let ((?x252 (* (- 1) s)))
 (let ((?x254 (+ r ?x252)))
 (let (($x513 (= (* ?x254 ?x254 ?x291 ?x291 ?x291 ?x328 ?x328 ?x328 ?x482 b q q) 0)))
 (let (($x335 (or (not $x513) (not $x546))))
 (let ((?x73 (* b00 p00 s)))
 (let ((?x440 (+ (* q00 r00 b) ?x73 (* (- 1) (* b00 r00 q)) (* (- 1) (* p00 s00 b)) (* a00 s00 q) (* (- 1) (* a00 q00 s)))))
 (let (($x499 (= ?x440 0)))
 (let ((?x648 (* a00 s00 p)))
 (let ((?x641 (* q00 r00 a)))
 (let ((?x65 (* b00 p00 r)))
 (let ((?x399 (+ (* (- 1) (* b00 r00 p)) (* (- 1) (* p00 s00 a)) ?x65 ?x641 ?x648 (* (- 1) (* a00 q00 r)))))
 (let ((?x59 (* b p)))
 (let ((?x55 (* a00 q00)))
 (let (($x232 (= (+ (* (- 1) (* q a)) ?x55 (* (- 1) (* b00 p00)) ?x59) 0)))
 (let ((?x41 (* q00 r00)))
 (let ((?x37 (* p00 s00)))
 (let ((?x131 (* (- 1) ?x37)))
 (let ((?x827 (* s p)))
 (let (($x553 (and (= (+ (* (- 1) (* r q)) ?x827 ?x131 ?x41) 0) (= (+ (* (- 1) (* r b)) ?x858 (* s a) ?x51) 0) $x232 (= ?x399 0) $x499 $x335)))
 (let ((?x100 (- q p)))
 (let ((?x94 (- b a)))
 (let ((?x31 (- 1)))
 (let ((?x101 (* (+ (- (* ?x31 ?x94 r) ?x47) (* a (- s r)) ?x51) ?x31 a a a ?x94 p p p ?x100 ?x100 r r)))
 (let ((?x84 (- r s)))
 (let ((?x90 (- p q)))
 (let ((?x87 (- a b)))
 (let ((?x91 (* (+ (- (* ?x31 b ?x84) ?x47) (* ?x87 s) ?x51) ?x31 ?x87 ?x87 ?x87 b ?x90 ?x90 ?x90 q q ?x84 ?x84)))
 (let ((?x81 (* a00 q00 s)))
 (let ((?x76 (* b p00 s00)))
 (let ((?x80 (+ (- (- (+ (* b q00 r00) ?x73) (* b00 q r00)) ?x76) (* a00 q s00))))
 (let ((?x69 (* a00 q00 r)))
 (let ((?x66 (* a q00 r00)))
 (let ((?x68 (+ (- (* ?x31 b00 p r00) (* a p00 s00)) ?x65 ?x66 (* a00 p s00))))
 (let (($x105 (and (= (+ (- (+ (* ?x31 q r) (* p s)) ?x37) ?x41) 0) (= (+ (- (* ?x31 b r) ?x47) (* a s) ?x51) 0) (= (+ (- (+ (* ?x31 a q) ?x55) (* b00 p00)) ?x59) 0) (= (- ?x68 ?x69) 0) (= (- ?x80 ?x81) 0) (or (not (= ?x91 0)) (not (= ?x101 0))))))
 (rewrite (= $x105 $x553)))))))))))))))))))))))))))))))))))))))))))))))
 ))
 (let ((@x107 (asserted $x106)))
 (let ((@x462 (mp (mp @x107 (quant-intro (proof-bind ?x341) (= $x106 $x652)) $x652) (rewrite (= $x652 $x652)) $x652)))
 (let ((@x396 (mp (mp @x462 (quant-intro (proof-bind ?x793) (= $x652 $x854)) $x854) (quant-intro (proof-bind ?x556) (= $x854 $x388)) $x388)))
 (let ((@x701 (mp (mp~ @x396 (sk (~ $x388 $x617)) $x617) (rewrite (= $x617 $x699)) $x699)))
 (let ((@x816 (and-elim @x701 $x735)))
 (let ((@x745 (unit-resolution ((_ th-lemma arith triangle-eq) (or (not $x735) $x533)) @x816 $x533)))
 (let (($x541 (>= ?x734 0)))
 (let ((@x363 (unit-resolution ((_ th-lemma arith triangle-eq) (or (not $x735) $x541)) @x816 $x541)))
 (let (($x296 (not (<= ?x697 0))))
 (let (($x716 (>= ?x301 0)))
 (let (($x718 (<= ?x301 0)))
 (let ((@x698 (unit-resolution ((_ th-lemma arith triangle-eq) (or $x284 (not $x718) (not $x716))) (lemma ((_ th-lemma arith farkas 1 1 1) (hypothesis (not $x718)) @x745 @x363 false) $x718) (lemma ((_ th-lemma arith farkas 1 1 1) (hypothesis (not $x716)) @x745 @x363 false) $x716) $x284)))
 (let (($x719 (>= ?x697 0)))
 (let ((@x142 (unit-resolution ((_ th-lemma arith triangle-eq) (or $x545 $x296 (not $x719))) (lemma ((_ th-lemma arith) (hypothesis (not $x719)) @x363 @x745 false) $x719) (unit-resolution (and-elim @x701 $x370) @x698 $x256) $x296)))
 ((_ th-lemma arith) @x142 @x363 @x745 false)))))))))))))))))))))))))))))))))))))))))))))))))))))))))))))))))))))))))))))))))))))))))))))))))))))))))))))

(:added-eqs                 8
 :arith-assert-diseq        3
 :arith-assert-lower        15
 :arith-assert-upper        15
 :arith-conflicts           4
 :arith-eq-adapter          9
 :arith-fixed-eqs           4
 :arith-gcd-tests           2
 :arith-grobner             4
 :arith-max-min             514
 :arith-nonlinear-horner    38
 :arith-num-rows            10
 :arith-patches             2
 :arith-patches_succ        2
 :arith-pivots              6
 :arith-pseudo-nonlinear    2
 :arith-row-summations      1
 :arith-tableau-max-columns 74
 :arith-tableau-max-rows    10
 :conflicts                 4
 :decisions                 7
 :del-clause                23
 :final-checks              4
 :max-memory                3.78
 :memory                    3.19
 :mk-bool-var               33
 :mk-clause                 32
 :num-allocs                1756871
 :num-checks                1
 :propagations              19
 :rlimit-count              14238
 :time                      0.02
 :total-time                0.03)
